(declare-fun temp1646_1 () (_ BitVec 64))
(declare-fun temp1646_2 () (_ BitVec 64))
(declare-fun temp1646_3 () (_ BitVec 64))
(declare-fun ARGNAME_w_hh_NAMEEND_DIMSIZE
             ()
             (Array (_ BitVec 64) (_ BitVec 64)))
(declare-fun temp1646_4 () (_ BitVec 64))
(declare-fun temp1646_5 () (_ BitVec 64))
(declare-fun temp1646_6 () (_ BitVec 64))
(declare-fun temp1646_7 () (_ BitVec 64))
(declare-fun temp1646_8 () (_ BitVec 64))
(declare-fun temp1646_9 () (_ BitVec 64))
(declare-fun temp1646_10 () (_ BitVec 64))
(declare-fun temp1646_11 () (_ BitVec 64))
(declare-fun temp1646_12 () (_ BitVec 64))
(declare-fun temp1646_13 () (_ BitVec 64))
(declare-fun temp1646_14 () (_ BitVec 64))
(declare-fun temp1646_15 () (_ BitVec 64))
(declare-fun temp1646_16 () (_ BitVec 64))
(declare-fun temp1646_17 () (_ BitVec 64))
(declare-fun temp1646_18 () (_ BitVec 64))
(declare-fun temp1646_19 () (_ BitVec 64))
(declare-fun temp1646_20 () (_ BitVec 64))
(declare-fun temp1646_21 () (_ BitVec 64))
(declare-fun temp1646_22 () (_ BitVec 64))
(declare-fun temp1646_23 () (_ BitVec 64))
(declare-fun temp1646_24 () (_ BitVec 64))
(declare-fun ARGNAME_input_NAMEEND_DIMSIZE
             ()
             (Array (_ BitVec 64) (_ BitVec 64)))
(declare-fun temp1646_25 () (_ BitVec 64))
(declare-fun temp1646_26 () (_ BitVec 64))
(declare-fun temp1646_27 () (_ BitVec 64))
(declare-fun temp1646_28 () (_ BitVec 64))
(declare-fun temp1646_29 () (_ BitVec 64))
(declare-fun temp1646_30 () (_ BitVec 64))
(declare-fun temp1646_31 () (_ BitVec 64))
(declare-fun temp1646_32 () (_ BitVec 64))
(declare-fun temp1646_33 () (_ BitVec 64))
(declare-fun temp1646_34 () (_ BitVec 64))
(declare-fun temp1646_35 () (_ BitVec 64))
(declare-fun temp1646_36 () (_ BitVec 64))
(declare-fun temp1646_37 () (_ BitVec 64))
(declare-fun temp1646_38 () (_ BitVec 64))
(declare-fun temp1646_39 () (_ BitVec 64))
(declare-fun temp1646_40 () (_ BitVec 64))
(declare-fun temp1646_41 () (_ BitVec 64))
(declare-fun temp1646_42 () (_ BitVec 64))
(declare-fun temp1646_43 () (_ BitVec 64))
(declare-fun temp1646_44 () (_ BitVec 64))
(declare-fun var404256 () (_ BitVec 64))
(declare-fun k!0 () (_ BitVec 64))
(declare-fun k!1 () (_ BitVec 64))
(declare-fun k!2 () Bool)
(declare-fun ARGNAME_w_hh_NAMEEND_DIM () (_ BitVec 64))
(declare-fun ARGNAME_input_NAMEEND_DIM () (_ BitVec 64))
(declare-fun temp1646_45 () (_ BitVec 64))
(declare-fun temp1646_46 () (_ BitVec 64))
(declare-fun ARGNAME_b_ih_NAMEEND_DIMSIZE
             ()
             (Array (_ BitVec 64) (_ BitVec 64)))
(declare-fun temp1646_47 () (_ BitVec 64))
(declare-fun temp1646_48 () (_ BitVec 64))
(declare-fun temp1646_49 () (_ BitVec 64))
(declare-fun temp1646_50 () (_ BitVec 64))
(declare-fun temp1646_51 () (_ BitVec 64))
(declare-fun temp1646_52 () (_ BitVec 64))
(declare-fun temp1646_53 () (_ BitVec 64))
(declare-fun temp1646_54 () (_ BitVec 64))
(declare-fun temp1646_55 () (_ BitVec 64))
(declare-fun temp1646_56 () (_ BitVec 64))
(declare-fun temp1646_57 () (_ BitVec 64))
(declare-fun temp1646_58 () (_ BitVec 64))
(declare-fun temp1646_59 () (_ BitVec 64))
(declare-fun temp1646_60 () (_ BitVec 64))
(declare-fun temp1646_61 () (_ BitVec 64))
(declare-fun temp1646_62 () (_ BitVec 64))
(declare-fun temp1646_63 () (_ BitVec 64))
(declare-fun temp1646_64 () (_ BitVec 64))
(declare-fun temp1646_65 () (_ BitVec 64))
(declare-fun ARGNAME_b_ih_NAMEEND_DIM () (_ BitVec 64))
(declare-fun temp1646_66 () (_ BitVec 64))
(declare-fun var65706 () (_ BitVec 64))
(declare-fun temp1646_67 () (_ BitVec 64))
(declare-fun temp1646_68 () (_ BitVec 64))
(declare-fun temp1646_69 () (_ BitVec 64))
(declare-fun temp1646_70 () (_ BitVec 64))
(declare-fun temp1646_71 () (_ BitVec 64))
(declare-fun temp1646_72 () (_ BitVec 64))
(declare-fun var68976 () (_ BitVec 64))
(declare-fun temp1646_73 () (_ BitVec 64))
(declare-fun temp1646_74 () (_ BitVec 64))
(declare-fun temp1646_75 () (_ BitVec 64))
(declare-fun temp1646_76 () (_ BitVec 64))
(declare-fun temp1646_77 () (_ BitVec 64))
(declare-fun temp1646_78 () (_ BitVec 64))
(declare-fun temp1646_79 () (_ BitVec 64))
(declare-fun temp1646_80 () (_ BitVec 64))
(declare-fun var2041840 () (_ BitVec 64))
(declare-fun temp1646_81 () (_ BitVec 64))
(declare-fun temp1646_82 () (_ BitVec 64))
(declare-fun var2756425 () (_ BitVec 64))
(declare-fun temp1646_83 () (_ BitVec 64))
(declare-fun var3084353 () (_ BitVec 64))
(declare-fun temp1646_84 () (_ BitVec 64))
(declare-fun var3084354 () (_ BitVec 64))
(declare-fun temp1646_85 () (_ BitVec 64))
(declare-fun var3149899 () (_ BitVec 64))
(declare-fun temp1646_86 () (_ BitVec 64))
(declare-fun var3280971 () (_ BitVec 64))
(declare-fun temp1646_87 () (_ BitVec 64))
(declare-fun var3412043 () (_ BitVec 64))
(declare-fun temp1646_88 () (_ BitVec 64))
(declare-fun var3543115 () (_ BitVec 64))
(declare-fun temp1646_89 () (_ BitVec 64))
(declare-fun var3673929 () (_ BitVec 64))
(assert (= temp1646_1 #x0000000000000000))
(assert (= temp1646_2 temp1646_1))
(assert (= temp1646_3 (select ARGNAME_w_hh_NAMEEND_DIMSIZE temp1646_2)))
(assert (= temp1646_4 #x0000000000000001))
(assert (= temp1646_5 temp1646_4))
(assert (= temp1646_6 (select ARGNAME_w_hh_NAMEEND_DIMSIZE temp1646_5)))
(assert (= temp1646_7 #x0000000000000002))
(assert (= temp1646_8 temp1646_7))
(assert (= temp1646_9 (select ARGNAME_w_hh_NAMEEND_DIMSIZE temp1646_8)))
(assert (= temp1646_10 #x0000000000000003))
(assert (= temp1646_11 temp1646_10))
(assert (= temp1646_12 (select ARGNAME_w_hh_NAMEEND_DIMSIZE temp1646_11)))
(assert (= temp1646_13 #x0000000000000004))
(assert (= temp1646_14 temp1646_13))
(assert (= temp1646_15 (select ARGNAME_w_hh_NAMEEND_DIMSIZE temp1646_14)))
(assert (= temp1646_16 #x0000000000000005))
(assert (= temp1646_17 temp1646_16))
(assert (= temp1646_18 (select ARGNAME_w_hh_NAMEEND_DIMSIZE temp1646_17)))
(assert (= temp1646_19 #x0000000000000001))
(assert (= temp1646_20 temp1646_19))
(assert (= temp1646_21 (select ARGNAME_w_hh_NAMEEND_DIMSIZE temp1646_20)))
(assert (bvsgt ARGNAME_w_hh_NAMEEND_DIM temp1646_19))
(assert (bvsge temp1646_19 (bvneg ARGNAME_w_hh_NAMEEND_DIM)))
(assert (= temp1646_22 #x0000000000000000))
(assert (= temp1646_23 temp1646_22))
(assert (= temp1646_24 (select ARGNAME_input_NAMEEND_DIMSIZE temp1646_23)))
(assert (= temp1646_25 #x0000000000000001))
(assert (= temp1646_26 temp1646_25))
(assert (= temp1646_27 (select ARGNAME_input_NAMEEND_DIMSIZE temp1646_26)))
(assert (= temp1646_28 #x0000000000000002))
(assert (= temp1646_29 temp1646_28))
(assert (= temp1646_30 (select ARGNAME_input_NAMEEND_DIMSIZE temp1646_29)))
(assert (= temp1646_31 #x0000000000000003))
(assert (= temp1646_32 temp1646_31))
(assert (= temp1646_33 (select ARGNAME_input_NAMEEND_DIMSIZE temp1646_32)))
(assert (= temp1646_34 #x0000000000000004))
(assert (= temp1646_35 temp1646_34))
(assert (= temp1646_36 (select ARGNAME_input_NAMEEND_DIMSIZE temp1646_35)))
(assert (= temp1646_37 #x0000000000000005))
(assert (= temp1646_38 temp1646_37))
(assert (= temp1646_39 (select ARGNAME_input_NAMEEND_DIMSIZE temp1646_38)))
(assert (= temp1646_40 #x0000000000000001))
(assert (= temp1646_41 temp1646_40))
(assert (= temp1646_42 (select ARGNAME_input_NAMEEND_DIMSIZE temp1646_41)))
(assert (bvsgt ARGNAME_input_NAMEEND_DIM temp1646_40))
(assert (bvsge temp1646_40 (bvneg ARGNAME_input_NAMEEND_DIM)))
(assert (= temp1646_43 temp1646_21))
(assert (= var404256
   (ite (= temp1646_42 temp1646_43) #x0000000000000001 #x0000000000000000)))
(assert (= temp1646_44 #x0000000000000001))
(assert (= var404256 temp1646_44))
(assert (= temp1646_45 #x0000000000000000))
(assert (= temp1646_46 temp1646_45))
(assert (= temp1646_47 (select ARGNAME_b_ih_NAMEEND_DIMSIZE temp1646_46)))
(assert (= temp1646_48 #x0000000000000001))
(assert (= temp1646_49 temp1646_48))
(assert (= temp1646_50 (select ARGNAME_b_ih_NAMEEND_DIMSIZE temp1646_49)))
(assert (= temp1646_51 #x0000000000000002))
(assert (= temp1646_52 temp1646_51))
(assert (= temp1646_53 (select ARGNAME_b_ih_NAMEEND_DIMSIZE temp1646_52)))
(assert (= temp1646_54 #x0000000000000003))
(assert (= temp1646_55 temp1646_54))
(assert (= temp1646_56 (select ARGNAME_b_ih_NAMEEND_DIMSIZE temp1646_55)))
(assert (= temp1646_57 #x0000000000000004))
(assert (= temp1646_58 temp1646_57))
(assert (= temp1646_59 (select ARGNAME_b_ih_NAMEEND_DIMSIZE temp1646_58)))
(assert (= temp1646_60 #x0000000000000005))
(assert (= temp1646_61 temp1646_60))
(assert (= temp1646_62 (select ARGNAME_b_ih_NAMEEND_DIMSIZE temp1646_61)))
(assert (= temp1646_63 #x0000000000000001))
(assert (= temp1646_64 temp1646_63))
(assert (= temp1646_65 (select ARGNAME_b_ih_NAMEEND_DIMSIZE temp1646_64)))
(assert (bvsgt ARGNAME_b_ih_NAMEEND_DIM temp1646_63))
(assert (bvsge temp1646_63 (bvneg ARGNAME_b_ih_NAMEEND_DIM)))
(assert (= temp1646_66 #x0000000000000000))
(assert (= var65706 temp1646_66))
(assert (= temp1646_67 temp1646_65))
(assert (= temp1646_68 #x0000000000000000))
(assert (= temp1646_69 temp1646_68))
(assert (= temp1646_70 (select ARGNAME_input_NAMEEND_DIMSIZE temp1646_69)))
(assert (bvsgt ARGNAME_input_NAMEEND_DIM temp1646_68))
(assert (bvsge temp1646_68 (bvneg ARGNAME_input_NAMEEND_DIM)))
(assert (= temp1646_71 temp1646_67))
(assert (= temp1646_72 #x0000000000000001))
(assert (= var68976 temp1646_72))
(assert (= temp1646_73 temp1646_65))
(assert (= temp1646_74 #x0000000000000000))
(assert (= temp1646_75 temp1646_74))
(assert (= temp1646_76 (select ARGNAME_input_NAMEEND_DIMSIZE temp1646_75)))
(assert (bvsgt ARGNAME_input_NAMEEND_DIM temp1646_74))
(assert (bvsge temp1646_74 (bvneg ARGNAME_input_NAMEEND_DIM)))
(assert (= temp1646_77 temp1646_73))
(assert (= temp1646_78 #x0000000000000000))
(assert (= var65706 temp1646_78))
(assert (= temp1646_79 #x0000000000000001))
(assert (= var68976 temp1646_79))
(assert (= temp1646_80 #x0000000000000000))
(assert (= var2041840 temp1646_80))
(assert (= temp1646_81 #x0000000000000000))
(assert (= var2041840 temp1646_81))
(assert (= temp1646_82 #x0000000000000001))
(assert (= var2756425 temp1646_82))
(assert (= temp1646_83 #x0000000000000004))
(assert (= var3084353 temp1646_83))
(assert (= temp1646_84 #x0000000000000001))
(assert (= var3084354 temp1646_84))
(assert (= temp1646_85 #x0000000000000000))
(assert (= var3149899 temp1646_85))
(assert (= temp1646_86 #x0000000000000001))
(assert (= var3280971 temp1646_86))
(assert (= temp1646_87 #x0000000000000002))
(assert (= var3412043 temp1646_87))
(assert (= temp1646_88 #x0000000000000003))
(assert (= var3543115 temp1646_88))
(assert (= temp1646_89 #x0000000000000001))
(assert (= var3673929 temp1646_89))
(model-add temp1646_1 () (_ BitVec 64) #x0000000000000000)
(model-add temp1646_2 () (_ BitVec 64) #x0000000000000000)
(model-add temp1646_3
           ()
           (_ BitVec 64)
           (select ARGNAME_w_hh_NAMEEND_DIMSIZE #x0000000000000000))
(model-add temp1646_4 () (_ BitVec 64) #x0000000000000001)
(model-add temp1646_5 () (_ BitVec 64) #x0000000000000001)
(model-add temp1646_6
           ()
           (_ BitVec 64)
           (select ARGNAME_w_hh_NAMEEND_DIMSIZE #x0000000000000001))
(model-add temp1646_7 () (_ BitVec 64) #x0000000000000002)
(model-add temp1646_8 () (_ BitVec 64) #x0000000000000002)
(model-add temp1646_9
           ()
           (_ BitVec 64)
           (select ARGNAME_w_hh_NAMEEND_DIMSIZE #x0000000000000002))
(model-add temp1646_10 () (_ BitVec 64) #x0000000000000003)
(model-add temp1646_11 () (_ BitVec 64) #x0000000000000003)
(model-add temp1646_12
           ()
           (_ BitVec 64)
           (select ARGNAME_w_hh_NAMEEND_DIMSIZE #x0000000000000003))
(model-add temp1646_13 () (_ BitVec 64) #x0000000000000004)
(model-add temp1646_14 () (_ BitVec 64) #x0000000000000004)
(model-add temp1646_15
           ()
           (_ BitVec 64)
           (select ARGNAME_w_hh_NAMEEND_DIMSIZE #x0000000000000004))
(model-add temp1646_16 () (_ BitVec 64) #x0000000000000005)
(model-add temp1646_17 () (_ BitVec 64) #x0000000000000005)
(model-add temp1646_18
           ()
           (_ BitVec 64)
           (select ARGNAME_w_hh_NAMEEND_DIMSIZE #x0000000000000005))
(model-add temp1646_19 () (_ BitVec 64) #x0000000000000001)
(model-add temp1646_20 () (_ BitVec 64) #x0000000000000001)
(model-add temp1646_21
           ()
           (_ BitVec 64)
           (select ARGNAME_w_hh_NAMEEND_DIMSIZE #x0000000000000001))
(model-add temp1646_22 () (_ BitVec 64) #x0000000000000000)
(model-add temp1646_23 () (_ BitVec 64) #x0000000000000000)
(model-add temp1646_24
           ()
           (_ BitVec 64)
           (select ARGNAME_input_NAMEEND_DIMSIZE #x0000000000000000))
(model-add temp1646_25 () (_ BitVec 64) #x0000000000000001)
(model-add temp1646_26 () (_ BitVec 64) #x0000000000000001)
(model-add temp1646_27
           ()
           (_ BitVec 64)
           (select ARGNAME_input_NAMEEND_DIMSIZE #x0000000000000001))
(model-add temp1646_28 () (_ BitVec 64) #x0000000000000002)
(model-add temp1646_29 () (_ BitVec 64) #x0000000000000002)
(model-add temp1646_30
           ()
           (_ BitVec 64)
           (select ARGNAME_input_NAMEEND_DIMSIZE #x0000000000000002))
(model-add temp1646_31 () (_ BitVec 64) #x0000000000000003)
(model-add temp1646_32 () (_ BitVec 64) #x0000000000000003)
(model-add temp1646_33
           ()
           (_ BitVec 64)
           (select ARGNAME_input_NAMEEND_DIMSIZE #x0000000000000003))
(model-add temp1646_34 () (_ BitVec 64) #x0000000000000004)
(model-add temp1646_35 () (_ BitVec 64) #x0000000000000004)
(model-add temp1646_36
           ()
           (_ BitVec 64)
           (select ARGNAME_input_NAMEEND_DIMSIZE #x0000000000000004))
(model-add temp1646_37 () (_ BitVec 64) #x0000000000000005)
(model-add temp1646_38 () (_ BitVec 64) #x0000000000000005)
(model-add temp1646_39
           ()
           (_ BitVec 64)
           (select ARGNAME_input_NAMEEND_DIMSIZE #x0000000000000005))
(model-add temp1646_40 () (_ BitVec 64) #x0000000000000001)
(model-add temp1646_41 () (_ BitVec 64) #x0000000000000001)
(model-add temp1646_42
           ()
           (_ BitVec 64)
           (select ARGNAME_input_NAMEEND_DIMSIZE #x0000000000000001))
(model-add temp1646_43
           ()
           (_ BitVec 64)
           (select ARGNAME_w_hh_NAMEEND_DIMSIZE #x0000000000000001))
(model-add temp1646_44 () (_ BitVec 64) #x0000000000000001)
(model-add var404256 () (_ BitVec 64) #x0000000000000001)
(model-del k!0)
(model-add ARGNAME_input_NAMEEND_DIMSIZE
           ()
           (Array (_ BitVec 64) (_ BitVec 64))
           ((as const (Array (_ BitVec 64) (_ BitVec 64))) k!0))
(model-del k!1)
(model-add ARGNAME_w_hh_NAMEEND_DIMSIZE
           ()
           (Array (_ BitVec 64) (_ BitVec 64))
           ((as const (Array (_ BitVec 64) (_ BitVec 64))) k!1))
(model-del k!2)
(model-add k!0 () (_ BitVec 64) (ite k!2 k!1 (bvnot k!1)))




